c turning on binary mode checking
c parsing input formula with 259840 variables and 1039934 clauses
c finished parsing, read 3080009 bytes from proof file
c detected empty clause; start verification via backward checking
c 9665 of 1039934 clauses in core                            
c 3194 of 116830 lemmas in core using 133757 resolution steps
c 0 RAT lemmas in core; 889 redundant literals in core lemmas
s VERIFIED
c verification time: 1.709 seconds
